335 334 283 284 285 286 287 280 281 282 279 278 277 276 288 289 290 291 292 275 274 273 272 271 268 269 270 293 294 295 296 267 266 265 264 263 262 261 260 259 258 299 298 297 321 320 319 317 318 305 306 304 303 307 308 309 310 505 504 503 502 498 501 451 311 312 313 316 314 315 375 376 377 378 379 380 381 445 444 443 442 446 447 448 449 450 441 440 453 452 499 500 461 462 463 464 465 466 467 468 469 470 496 497 519 518 520 517 516 515 514 522 521 523 526 491 492 493 525 524 494 495 471 472 473 474 570 569 568 567 475 476 477 478 479 480 481 482 483 485 484 536 537 539 538 540 176 177 178 187 188 186 227 189 190 192 191 226 225 228 229 230 231 533 532 531 233 530 489 488 534 535 487 486 490 529 528 527 512 513 511 510 509 506 507 508 302 301 300 257 256 255 253 254 252 251 250 249 248 241 242 243 244 245 247 246 238 239 240 237 236 235 234 232 224 219 218 220 221 222 223 217 216 215 214 213 212 211 210 209 205 206 207 208 203 204 202 201 200 199 198 197 196 195 194 193 184 185 183 182 179 181 180 169 168 162 163 167 166 164 165 154 155 156 153 157 159 160 161 113 131 132 133 134 137 136 135 158 145 144 143 142 146 147 148 152 149 150 151 141 140 139 138 129 130 128 127 126 125 124 69 70 68 67 66 65 72 71 123 122 117 121 120 118 119 73 74 75 76 77 78 62 64 63 60 61 79 80 81 59 58 57 82 83 56 55 53 54 52 50 51 84 85 86 87 88 89 90 92 91 555 556 554 553 552 99 98 97 93 94 95 96 104 105 106 116 115 114 112 111 110 172 170 171 175 174 173 108 109 107 542 541 543 544 545 546 547 103 102 100 101 551 548 549 564 566 565 563 562 561 560 550 559 558 557 40 41 44 45 46 47 48 49 43 42 39 38 37 36 35 34 33 32 30 29 28 27 26 25 24 21 31 22 23 12 13 14 15 11 10 16 20 19 18 17 8 9 7 6 5 4 3 2 1 0 573 572 571 460 459 458 457 456 455 454 439 436 438 437 435 434 433 432 430 431 429 428 427 426 425 424 423 422 421 420 419 417 418 410 411 412 356 355 354 353 413 416 415 414 352 351 350 347 348 349 357 358 359 360 401 402 403 400 399 404 405 406 407 408 409 384 383 382 386 385 387 388 389 390 392 391 393 394 397 398 372 371 396 395 374 373 322 323 324 325 326 327 328 329 366 367 370 369 368 365 364 363 361 362 346 345 344 343 342 341 340 330 331 332 333 339 338 337 336